
<<< setup

Tried aggregator 1 time.
LP Presolve eliminated 100 rows and 64 columns.
Reduced LP has 4 rows, 24 columns, and 24 nonzeros.
Presolve time = 0.00 sec. (0.04 ticks)

Iteration log . . .
Iteration:     1   Dual infeasibility =             0.000000
Iteration:     2   Dual objective     =          1025.135517
main returns 0

<<< main


<<< done

